c
c start with comments
c
p cnf 27 15
15 18 0
14 -16 -19 0
29 -25 -28 0
-7 -2 0
-29 21 24 0
14 -22 -5 -21 0
-30 -10 9 0
19 -1 26 0
3 27 0
-13 -11 23 0
28 -24 0
-17 -5 4 -19 -14 0
-14 -21 -21 -12 0
-18 7 0
2 10 0